p edge 70 665 57
e 1 3
e 1 4
e 1 6
e 1 8
e 1 14
e 1 16
e 1 23
e 1 24
e 1 25
e 1 26
e 1 27
e 1 28
e 1 29
e 1 32
e 1 36
e 1 47
e 1 49
e 1 51
e 1 52
e 1 62
e 1 63
e 2 4
e 2 5
e 2 21
e 2 23
e 2 24
e 2 27
e 2 29
e 2 32
e 2 35
e 2 41
e 2 43
e 2 46
e 2 54
e 2 59
e 2 62
e 2 63
e 2 64
e 2 66
e 2 67
e 3 6
e 3 10
e 3 15
e 3 17
e 3 23
e 3 24
e 3 25
e 3 28
e 3 30
e 3 33
e 3 35
e 3 43
e 3 44
e 3 50
e 3 56
e 3 57
e 3 60
e 3 61
e 3 64
e 3 67
e 4 7
e 4 8
e 4 9
e 4 12
e 4 13
e 4 16
e 4 19
e 4 21
e 4 22
e 4 26
e 4 30
e 4 42
e 4 43
e 4 44
e 4 45
e 4 46
e 4 49
e 4 52
e 4 62
e 4 64
e 4 65
e 4 67
e 4 69
e 5 8
e 5 11
e 5 13
e 5 20
e 5 26
e 5 30
e 5 35
e 5 42
e 5 43
e 5 45
e 5 50
e 5 52
e 5 57
e 5 60
e 5 68
e 6 7
e 6 9
e 6 12
e 6 13
e 6 14
e 6 15
e 6 19
e 6 22
e 6 23
e 6 26
e 6 32
e 6 33
e 6 35
e 6 36
e 6 44
e 6 46
e 6 49
e 6 52
e 6 54
e 6 63
e 6 64
e 6 69
e 7 9
e 7 14
e 7 17
e 7 18
e 7 19
e 7 21
e 7 36
e 7 41
e 7 45
e 7 46
e 7 48
e 7 52
e 7 56
e 7 57
e 7 58
e 7 59
e 7 61
e 7 65
e 7 67
e 7 68
e 8 11
e 8 16
e 8 18
e 8 19
e 8 24
e 8 25
e 8 26
e 8 29
e 8 35
e 8 36
e 8 38
e 8 41
e 8 44
e 8 52
e 8 53
e 8 54
e 8 56
e 8 57
e 8 59
e 8 61
e 8 63
e 8 65
e 8 69
e 9 13
e 9 17
e 9 31
e 9 32
e 9 40
e 9 42
e 9 44
e 9 46
e 9 47
e 9 49
e 9 50
e 9 53
e 9 55
e 9 60
e 9 63
e 9 64
e 10 14
e 10 23
e 10 24
e 10 25
e 10 29
e 10 32
e 10 33
e 10 36
e 10 37
e 10 38
e 10 44
e 10 55
e 10 56
e 10 58
e 10 59
e 10 69
e 10 70
e 11 15
e 11 20
e 11 23
e 11 24
e 11 25
e 11 27
e 11 30
e 11 31
e 11 33
e 11 34
e 11 42
e 11 43
e 11 46
e 11 48
e 11 49
e 11 55
e 11 67
e 12 14
e 12 18
e 12 24
e 12 38
e 12 56
e 12 58
e 12 70
e 13 15
e 13 23
e 13 24
e 13 25
e 13 26
e 13 29
e 13 31
e 13 32
e 13 33
e 13 36
e 13 41
e 13 42
e 13 52
e 13 60
e 13 62
e 13 63
e 13 66
e 13 67
e 13 69
e 13 70
e 14 20
e 14 21
e 14 25
e 14 27
e 14 29
e 14 31
e 14 34
e 14 36
e 14 37
e 14 38
e 14 48
e 14 50
e 14 51
e 14 52
e 14 57
e 14 59
e 14 60
e 14 61
e 14 63
e 14 64
e 14 65
e 14 69
e 15 16
e 15 22
e 15 24
e 15 25
e 15 26
e 15 27
e 15 28
e 15 33
e 15 38
e 15 45
e 15 47
e 15 48
e 15 49
e 15 50
e 15 53
e 15 57
e 15 59
e 15 63
e 15 65
e 15 69
e 16 17
e 16 24
e 16 29
e 16 36
e 16 53
e 16 56
e 16 62
e 16 63
e 16 64
e 16 66
e 16 68
e 17 20
e 17 23
e 17 27
e 17 31
e 17 32
e 17 45
e 17 47
e 17 51
e 17 52
e 17 53
e 17 55
e 17 60
e 17 61
e 17 62
e 17 63
e 17 65
e 17 66
e 18 19
e 18 20
e 18 22
e 18 27
e 18 32
e 18 34
e 18 36
e 18 43
e 18 44
e 18 54
e 18 63
e 18 65
e 18 68
e 19 22
e 19 27
e 19 37
e 19 38
e 19 39
e 19 40
e 19 44
e 19 45
e 19 46
e 19 51
e 19 57
e 19 60
e 19 64
e 19 65
e 19 66
e 19 68
e 20 25
e 20 31
e 20 34
e 20 36
e 20 44
e 20 45
e 20 49
e 20 52
e 20 53
e 20 54
e 20 57
e 20 60
e 20 61
e 20 62
e 20 64
e 20 70
e 21 22
e 21 25
e 21 26
e 21 28
e 21 41
e 21 45
e 21 46
e 21 47
e 21 52
e 21 53
e 21 59
e 22 27
e 22 35
e 22 36
e 22 39
e 22 45
e 22 66
e 23 25
e 23 33
e 23 36
e 23 45
e 23 48
e 23 49
e 23 50
e 23 55
e 23 61
e 23 65
e 23 67
e 24 31
e 24 34
e 24 37
e 24 42
e 24 43
e 24 46
e 24 47
e 24 53
e 24 57
e 24 58
e 24 59
e 24 60
e 24 61
e 24 65
e 24 66
e 25 28
e 25 29
e 25 30
e 25 33
e 25 34
e 25 40
e 25 60
e 25 65
e 25 70
e 26 27
e 26 41
e 26 43
e 26 50
e 26 54
e 26 55
e 26 67
e 26 69
e 27 28
e 27 35
e 27 39
e 27 45
e 27 46
e 27 51
e 27 53
e 27 60
e 27 65
e 27 69
e 28 31
e 28 34
e 28 40
e 28 41
e 28 45
e 28 59
e 28 68
e 29 31
e 29 32
e 29 34
e 29 35
e 29 37
e 29 42
e 29 44
e 29 47
e 29 48
e 29 50
e 29 51
e 29 53
e 29 55
e 29 61
e 29 64
e 30 37
e 30 38
e 30 45
e 30 46
e 30 48
e 30 52
e 30 54
e 30 56
e 30 57
e 30 59
e 30 60
e 30 66
e 30 68
e 31 33
e 31 40
e 31 42
e 31 48
e 31 49
e 31 59
e 31 60
e 31 62
e 32 35
e 32 40
e 32 41
e 32 44
e 32 45
e 32 55
e 32 58
e 32 59
e 32 64
e 32 65
e 32 68
e 33 37
e 33 40
e 33 42
e 33 44
e 33 45
e 33 55
e 33 62
e 34 45
e 34 49
e 34 53
e 34 55
e 34 59
e 34 61
e 34 63
e 34 66
e 35 37
e 35 39
e 35 41
e 35 44
e 35 47
e 35 48
e 35 50
e 35 54
e 35 57
e 35 60
e 35 61
e 35 64
e 35 66
e 35 68
e 36 38
e 36 39
e 36 44
e 36 45
e 36 46
e 36 53
e 36 54
e 36 60
e 36 61
e 37 41
e 37 42
e 37 49
e 37 62
e 38 39
e 38 41
e 38 42
e 38 43
e 38 49
e 38 57
e 38 61
e 38 62
e 38 66
e 39 40
e 39 42
e 39 47
e 39 58
e 39 63
e 39 65
e 39 70
e 40 45
e 40 47
e 40 48
e 40 49
e 40 58
e 40 60
e 40 63
e 40 64
e 40 70
e 41 42
e 41 44
e 41 45
e 41 46
e 41 50
e 41 53
e 41 61
e 42 44
e 42 45
e 42 46
e 42 56
e 42 64
e 43 46
e 43 49
e 43 50
e 43 51
e 43 54
e 43 60
e 43 62
e 43 66
e 44 45
e 44 47
e 44 48
e 44 49
e 44 50
e 44 66
e 45 46
e 45 48
e 45 50
e 45 61
e 45 62
e 45 65
e 45 67
e 46 49
e 46 54
e 46 56
e 46 63
e 46 67
e 46 68
e 47 48
e 47 50
e 47 52
e 47 53
e 47 55
e 47 56
e 47 60
e 47 62
e 47 64
e 47 65
e 47 68
e 47 69
e 48 50
e 48 54
e 48 56
e 48 58
e 48 64
e 48 66
e 49 50
e 49 51
e 49 54
e 49 55
e 49 59
e 49 60
e 49 69
e 49 70
e 50 51
e 50 56
e 50 57
e 50 63
e 50 64
e 50 67
e 51 54
e 51 65
e 51 66
e 51 70
e 52 54
e 52 55
e 52 62
e 52 68
e 52 70
e 53 54
e 53 55
e 53 62
e 53 64
e 53 66
e 54 63
e 54 64
e 54 66
e 55 61
e 55 62
e 55 63
e 55 64
e 56 58
e 56 60
e 56 61
e 57 58
e 57 61
e 57 64
e 57 67
e 58 59
e 58 61
e 59 69
e 60 63
e 60 70
e 61 65
e 61 68
e 62 64
e 62 70
e 63 64
e 63 70
e 64 67
e 64 68
e 64 69
e 65 66
e 65 68
e 66 67
e 66 68
e 66 70
e 67 70
